; benchmark generated from python API
(set-info :status unknown)
(declare-fun x_epoch () Int)
(declare-fun y_epoch () Int)
(declare-fun x_shift_period_67052_epoch () Int)
(declare-fun x_year () Int)
(declare-fun x_month () Int)
(declare-fun x_day () Int)
(declare-fun x_shift_period_67052_year () Int)
(declare-fun x_shift_period_67052_month () Int)
(declare-fun x_shift_period_67052_day () Int)
(declare-fun x_shift_period_74490_epoch () Int)
(declare-fun x_shift_period_74490_year () Int)
(declare-fun x_shift_period_74490_month () Int)
(declare-fun x_shift_period_74490_day () Int)
(assert
 (>= x_epoch (- 36584)))
(assert
 (<= x_epoch 36829))
(assert
 (>= y_epoch (- 36584)))
(assert
 (<= y_epoch 36829))
(assert
 (>= x_epoch 7244))
(assert
 (<= x_epoch 7276))
(assert
 (>= x_shift_period_67052_epoch (- 36584)))
(assert
 (<= x_shift_period_67052_epoch 36829))
(assert
 (let (($x3195 (<= x_year 2100)))
 (let (($x3177 (>= x_year 1900)))
 (let (($x2872 (= x_month 11)))
 (let (($x815 (= x_month 9)))
 (let (($x3917 (= x_month 6)))
 (let (($x376 (= x_month 4)))
 (let ((?x2278 (ite (or $x376 $x3917 $x815 $x2872) 30 31)))
 (let (($x3245 (= (mod x_year 4) 0)))
 (let (($x1838 (= (mod x_year 100) 0)))
 (let (($x1098 (= (mod x_year 400) 0)))
 (let (($x1123 (ite $x1098 true (ite $x1838 false $x3245))))
 (let (($x2885 (= x_month 2)))
 (let ((?x1225 (ite $x2885 (ite $x1123 29 28) ?x2278)))
 (let (($x4162 (>= x_day 1)))
 (let (($x4286 (<= x_month 12)))
 (let (($x948 (>= x_month 1)))
 (and $x948 $x4286 $x4162 (<= x_day ?x1225) $x3177 $x3195))))))))))))))))))
(assert
 (let (($x29 (or (and (= (mod 2000 4) 0) (and (distinct (mod 2000 100) 0) true)) (= (mod 2000 400) 0))))
 (let ((?x36 (ite (= 3 2) (ite $x29 31 31) (ite (= 3 1) (ite $x29 0 0) 0))))
 (let ((?x40 (ite $x29 60 59)))
 (let ((?x41 (ite (= 3 3) ?x40 ?x36)))
 (let ((?x46 (ite (= 3 4) (ite $x29 91 90) ?x41)))
 (let ((?x52 (ite (= 3 5) (ite $x29 121 120) ?x46)))
 (let ((?x58 (ite (= 3 6) (ite $x29 152 151) ?x52)))
 (let ((?x64 (ite (= 3 7) (ite $x29 182 181) ?x58)))
 (let ((?x70 (ite (= 3 8) (ite $x29 213 212) ?x64)))
 (let ((?x76 (ite (= 3 9) (ite $x29 244 243) ?x70)))
 (let ((?x82 (ite (= 3 10) (ite $x29 274 273) ?x76)))
 (let ((?x88 (ite (= 3 11) (ite $x29 305 304) ?x82)))
 (let ((?x16 (- (+ (* 365 (- 2000 1)) (div (- 2000 1) 4)) (div (- 2000 1) 100))))
 (let ((?x95 (+ (+ ?x16 (div (- 2000 1) 400)) (ite (= 3 12) (ite $x29 335 334) ?x88))))
 (let ((?x97 (+ ?x95 (- 1 1))))
 (let (($x3245 (= (mod x_year 4) 0)))
 (let (($x1838 (= (mod x_year 100) 0)))
 (let (($x1098 (= (mod x_year 400) 0)))
 (let (($x1123 (ite $x1098 true (ite $x1838 false $x3245))))
 (let (($x508 (= 2 x_month)))
 (let ((?x293 (ite $x508 (ite $x1123 31 31) (ite (= 1 x_month) (ite $x1123 0 0) 0))))
 (let (($x467 (= 3 x_month)))
 (let (($x906 (= 4 x_month)))
 (let ((?x2351 (ite $x906 (ite $x1123 91 90) (ite $x467 (ite $x1123 60 59) ?x293))))
 (let (($x3816 (= 5 x_month)))
 (let (($x3012 (= 6 x_month)))
 (let ((?x897 (ite $x3012 (ite $x1123 152 151) (ite $x3816 (ite $x1123 121 120) ?x2351))))
 (let (($x1091 (= 7 x_month)))
 (let (($x1249 (= 8 x_month)))
 (let ((?x2575 (ite $x1249 (ite $x1123 213 212) (ite $x1091 (ite $x1123 182 181) ?x897))))
 (let (($x702 (= 9 x_month)))
 (let (($x3233 (= 10 x_month)))
 (let ((?x2065 (ite $x3233 (ite $x1123 274 273) (ite $x702 (ite $x1123 244 243) ?x2575))))
 (let (($x4166 (= 11 x_month)))
 (let (($x556 (= 12 x_month)))
 (let ((?x2109 (ite $x556 (ite $x1123 335 334) (ite $x4166 (ite $x1123 305 304) ?x2065))))
 (let ((?x545 (- (+ (* 365 (- x_year 1)) (div (- x_year 1) 4)) (div (- x_year 1) 100))))
 (let ((?x1789 (+ (+ (+ ?x545 (div (- x_year 1) 400)) ?x2109) (- x_day 1))))
 (= x_epoch (- ?x1789 ?x97)))))))))))))))))))))))))))))))))))))))))
(assert
 (let (($x2100 (<= x_shift_period_67052_year 2100)))
 (let (($x1986 (>= x_shift_period_67052_year 1900)))
 (let (($x1754 (= x_shift_period_67052_month 11)))
 (let (($x3390 (= x_shift_period_67052_month 9)))
 (let (($x3553 (= x_shift_period_67052_month 6)))
 (let (($x1872 (= x_shift_period_67052_month 4)))
 (let ((?x5021 (ite (or $x1872 $x3553 $x3390 $x1754) 30 31)))
 (let (($x578 (= (mod x_shift_period_67052_year 4) 0)))
 (let (($x1899 (= (mod x_shift_period_67052_year 100) 0)))
 (let (($x2499 (= (mod x_shift_period_67052_year 400) 0)))
 (let (($x3689 (ite $x2499 true (ite $x1899 false $x578))))
 (let (($x2236 (= x_shift_period_67052_month 2)))
 (let (($x1062 (>= x_shift_period_67052_day 1)))
 (let (($x1210 (<= x_shift_period_67052_month 12)))
 (let (($x3651 (>= x_shift_period_67052_month 1)))
 (and $x3651 $x1210 $x1062 (<= x_shift_period_67052_day (ite $x2236 (ite $x3689 29 28) ?x5021)) $x1986 $x2100)))))))))))))))))
(assert
 (let (($x29 (or (and (= (mod 2000 4) 0) (and (distinct (mod 2000 100) 0) true)) (= (mod 2000 400) 0))))
 (let ((?x36 (ite (= 3 2) (ite $x29 31 31) (ite (= 3 1) (ite $x29 0 0) 0))))
 (let ((?x40 (ite $x29 60 59)))
 (let ((?x41 (ite (= 3 3) ?x40 ?x36)))
 (let ((?x46 (ite (= 3 4) (ite $x29 91 90) ?x41)))
 (let ((?x52 (ite (= 3 5) (ite $x29 121 120) ?x46)))
 (let ((?x58 (ite (= 3 6) (ite $x29 152 151) ?x52)))
 (let ((?x64 (ite (= 3 7) (ite $x29 182 181) ?x58)))
 (let ((?x70 (ite (= 3 8) (ite $x29 213 212) ?x64)))
 (let ((?x76 (ite (= 3 9) (ite $x29 244 243) ?x70)))
 (let ((?x82 (ite (= 3 10) (ite $x29 274 273) ?x76)))
 (let ((?x88 (ite (= 3 11) (ite $x29 305 304) ?x82)))
 (let ((?x16 (- (+ (* 365 (- 2000 1)) (div (- 2000 1) 4)) (div (- 2000 1) 100))))
 (let ((?x95 (+ (+ ?x16 (div (- 2000 1) 400)) (ite (= 3 12) (ite $x29 335 334) ?x88))))
 (let ((?x97 (+ ?x95 (- 1 1))))
 (let (($x578 (= (mod x_shift_period_67052_year 4) 0)))
 (let (($x1899 (= (mod x_shift_period_67052_year 100) 0)))
 (let (($x2499 (= (mod x_shift_period_67052_year 400) 0)))
 (let (($x3689 (ite $x2499 true (ite $x1899 false $x578))))
 (let ((?x3259 (ite (= 2 x_shift_period_67052_month) (ite $x3689 31 31) (ite (= 1 x_shift_period_67052_month) (ite $x3689 0 0) 0))))
 (let ((?x2363 (ite (= 4 x_shift_period_67052_month) (ite $x3689 91 90) (ite (= 3 x_shift_period_67052_month) (ite $x3689 60 59) ?x3259))))
 (let ((?x506 (ite (= 6 x_shift_period_67052_month) (ite $x3689 152 151) (ite (= 5 x_shift_period_67052_month) (ite $x3689 121 120) ?x2363))))
 (let ((?x4739 (ite (= 8 x_shift_period_67052_month) (ite $x3689 213 212) (ite (= 7 x_shift_period_67052_month) (ite $x3689 182 181) ?x506))))
 (let ((?x1994 (ite (= 10 x_shift_period_67052_month) (ite $x3689 274 273) (ite (= 9 x_shift_period_67052_month) (ite $x3689 244 243) ?x4739))))
 (let ((?x4732 (ite (= 12 x_shift_period_67052_month) (ite $x3689 335 334) (ite (= 11 x_shift_period_67052_month) (ite $x3689 305 304) ?x1994))))
 (let ((?x1322 (+ (* 365 (- x_shift_period_67052_year 1)) (div (- x_shift_period_67052_year 1) 4))))
 (let ((?x3372 (+ (- ?x1322 (div (- x_shift_period_67052_year 1) 100)) (div (- x_shift_period_67052_year 1) 400))))
 (= x_shift_period_67052_epoch (- (+ (+ ?x3372 ?x4732) (- x_shift_period_67052_day 1)) ?x97))))))))))))))))))))))))))))))
(assert
 (let ((?x2644 (* 12 x_year)))
 (let ((?x5020 (+ ?x2644 (- x_month 1))))
 (let ((?x3964 (+ ?x5020 12)))
 (let ((?x2255 (div ?x3964 12)))
 (= x_shift_period_67052_year ?x2255))))))
(assert
 (let ((?x4855 (+ (mod (+ (+ (* 12 x_year) (- x_month 1)) 12) 12) 1)))
 (= x_shift_period_67052_month ?x4855)))
(assert
 (let ((?x4855 (+ (mod (+ (+ (* 12 x_year) (- x_month 1)) 12) 12) 1)))
 (let ((?x1827 (ite (or (= ?x4855 4) (= ?x4855 6) (= ?x4855 9) (= ?x4855 11)) 30 31)))
 (let ((?x2644 (* 12 x_year)))
 (let ((?x5020 (+ ?x2644 (- x_month 1))))
 (let ((?x3964 (+ ?x5020 12)))
 (let ((?x2255 (div ?x3964 12)))
 (let (($x2517 (ite (= (mod ?x2255 400) 0) true (ite (= (mod ?x2255 100) 0) false (= (mod ?x2255 4) 0)))))
 (let ((?x2812 (ite (= ?x4855 2) (ite $x2517 29 28) ?x1827)))
 (let ((?x4121 (ite (<= x_day ?x2812) x_day ?x2812)))
 (let (($x2872 (= x_month 11)))
 (let (($x815 (= x_month 9)))
 (let (($x3917 (= x_month 6)))
 (let (($x376 (= x_month 4)))
 (let ((?x2278 (ite (or $x376 $x3917 $x815 $x2872) 30 31)))
 (let (($x3245 (= (mod x_year 4) 0)))
 (let (($x1838 (= (mod x_year 100) 0)))
 (let (($x1098 (= (mod x_year 400) 0)))
 (let (($x1123 (ite $x1098 true (ite $x1838 false $x3245))))
 (let (($x2885 (= x_month 2)))
 (let ((?x1225 (ite $x2885 (ite $x1123 29 28) ?x2278)))
 (let (($x1856 (= x_day ?x1225)))
 (= x_shift_period_67052_day (ite false (ite $x1856 ?x2812 ?x4121) ?x4121))))))))))))))))))))))))
(assert
 (= y_epoch x_shift_period_67052_epoch))
(assert
 (>= x_shift_period_74490_epoch (- 36584)))
(assert
 (<= x_shift_period_74490_epoch 36829))
(assert
 (let (($x3389 (<= x_shift_period_74490_year 2100)))
 (let (($x670 (>= x_shift_period_74490_year 1900)))
 (let (($x3008 (= x_shift_period_74490_month 11)))
 (let (($x1747 (= x_shift_period_74490_month 9)))
 (let (($x2130 (= x_shift_period_74490_month 6)))
 (let (($x2267 (= x_shift_period_74490_month 4)))
 (let ((?x1568 (ite (or $x2267 $x2130 $x1747 $x3008) 30 31)))
 (let (($x3181 (= (mod x_shift_period_74490_year 4) 0)))
 (let (($x2471 (= (mod x_shift_period_74490_year 100) 0)))
 (let (($x721 (= (mod x_shift_period_74490_year 400) 0)))
 (let (($x3185 (ite $x721 true (ite $x2471 false $x3181))))
 (let (($x1140 (= x_shift_period_74490_month 2)))
 (let (($x3548 (>= x_shift_period_74490_day 1)))
 (let (($x4094 (<= x_shift_period_74490_month 12)))
 (let (($x4078 (>= x_shift_period_74490_month 1)))
 (and $x4078 $x4094 $x3548 (<= x_shift_period_74490_day (ite $x1140 (ite $x3185 29 28) ?x1568)) $x670 $x3389)))))))))))))))))
(assert
 (let (($x29 (or (and (= (mod 2000 4) 0) (and (distinct (mod 2000 100) 0) true)) (= (mod 2000 400) 0))))
 (let ((?x36 (ite (= 3 2) (ite $x29 31 31) (ite (= 3 1) (ite $x29 0 0) 0))))
 (let ((?x40 (ite $x29 60 59)))
 (let ((?x41 (ite (= 3 3) ?x40 ?x36)))
 (let ((?x46 (ite (= 3 4) (ite $x29 91 90) ?x41)))
 (let ((?x52 (ite (= 3 5) (ite $x29 121 120) ?x46)))
 (let ((?x58 (ite (= 3 6) (ite $x29 152 151) ?x52)))
 (let ((?x64 (ite (= 3 7) (ite $x29 182 181) ?x58)))
 (let ((?x70 (ite (= 3 8) (ite $x29 213 212) ?x64)))
 (let ((?x76 (ite (= 3 9) (ite $x29 244 243) ?x70)))
 (let ((?x82 (ite (= 3 10) (ite $x29 274 273) ?x76)))
 (let ((?x88 (ite (= 3 11) (ite $x29 305 304) ?x82)))
 (let ((?x16 (- (+ (* 365 (- 2000 1)) (div (- 2000 1) 4)) (div (- 2000 1) 100))))
 (let ((?x95 (+ (+ ?x16 (div (- 2000 1) 400)) (ite (= 3 12) (ite $x29 335 334) ?x88))))
 (let ((?x97 (+ ?x95 (- 1 1))))
 (let (($x3181 (= (mod x_shift_period_74490_year 4) 0)))
 (let (($x2471 (= (mod x_shift_period_74490_year 100) 0)))
 (let (($x721 (= (mod x_shift_period_74490_year 400) 0)))
 (let (($x3185 (ite $x721 true (ite $x2471 false $x3181))))
 (let ((?x5209 (ite (= 2 x_shift_period_74490_month) (ite $x3185 31 31) (ite (= 1 x_shift_period_74490_month) (ite $x3185 0 0) 0))))
 (let ((?x1712 (ite (= 4 x_shift_period_74490_month) (ite $x3185 91 90) (ite (= 3 x_shift_period_74490_month) (ite $x3185 60 59) ?x5209))))
 (let ((?x5279 (ite (= 6 x_shift_period_74490_month) (ite $x3185 152 151) (ite (= 5 x_shift_period_74490_month) (ite $x3185 121 120) ?x1712))))
 (let ((?x1975 (ite (= 8 x_shift_period_74490_month) (ite $x3185 213 212) (ite (= 7 x_shift_period_74490_month) (ite $x3185 182 181) ?x5279))))
 (let ((?x1974 (ite (= 10 x_shift_period_74490_month) (ite $x3185 274 273) (ite (= 9 x_shift_period_74490_month) (ite $x3185 244 243) ?x1975))))
 (let ((?x3462 (ite (= 12 x_shift_period_74490_month) (ite $x3185 335 334) (ite (= 11 x_shift_period_74490_month) (ite $x3185 305 304) ?x1974))))
 (let ((?x1547 (+ (* 365 (- x_shift_period_74490_year 1)) (div (- x_shift_period_74490_year 1) 4))))
 (let ((?x2492 (+ (- ?x1547 (div (- x_shift_period_74490_year 1) 100)) (div (- x_shift_period_74490_year 1) 400))))
 (= x_shift_period_74490_epoch (- (+ (+ ?x2492 ?x3462) (- x_shift_period_74490_day 1)) ?x97))))))))))))))))))))))))))))))
(assert
 (= x_shift_period_74490_epoch (+ x_epoch 365)))
(assert
 (not (= y_epoch x_shift_period_74490_epoch)))
(check-sat)
